%%% static parameters %%%
timespan = 1;
Fact = [2];
Distr1 = [5];
Distr2 = [20];
Clients_N = [1000];
Demand_W = [15];
Lt0 = [4];
Lt1 = [4];
SS_ = [0.85];
DS_D = [20];
K = [200];
MA = [500];
%%% dynamic parameters %%%
lost_ratio_sales_ret_th = 0.0015833666152696435;
lost_ratio_sales_ret_w = 42;
lost_ratio_sales_dis_th = 0.006334511201413253;
lost_ratio_sales_dis_w = 40;
lost_ratio_sales_fac_th = 0.0027491556485863535;
lost_ratio_sales_fac_w = 5;
stock_customer_MA_mean_relative_th = 0.8257195680432096;
stock_customer_MA_mean_relative_w = 64;
stock_distributor_MA_mean_relative_th = 0.03419450405338864;
stock_distributor_MA_mean_relative_w = 45;
stock_retailer_MA_mean_relative_th = 0.959736294965897;
stock_retailer_MA_mean_relative_w = 56;
stock_factory_MA_mean_relative_th = 0.9870379371368692;
stock_factory_MA_mean_relative_w = 43;
